Route #1: 0 4 27 13 8 35 7 46 34 0
Route #2: 0 45 29 5 48 30 2 0
Route #3: 0 28 21 47 36 37 20 15 0
Route #4: 0 6 33 1 22 42 41 43 23 16 0
Route #5: 0 17 3 32 40 12 26 0
Route #6: 0 19 14 11 38 10 39 0
Route #7: 0 44 49 24 18 25 31 9 0
Cost 595:
